(set-logic ALL)
(set-option :produce-models true)
(declare-sort BoundSet 0)
(declare-sort UnboundSet 0)
(declare-fun IsWearingGreenHeadscarf (BoundSet) Bool)
(declare-fun HasBigGrin (BoundSet) Bool)
(declare-fun ( (Bool) Bool)
(declare-fun HasBlueShirt (BoundSet) Bool)
(declare-fun HasBeenShot (BoundSet) Bool)
(assert (not (=> (or (exists ((a BoundSet)) (( (and (IsWearingGreenHeadscarf a) (HasBigGrin a)))) (and (HasBlueShirt a) (IsWearingGreenHeadscarf a))) (exists ((a BoundSet)) (HasBeenShot a)))))
(check-sat)
(get-model)